p cnf 40 32
-1 -2 11 -3 20 0 
-4 15 21 0 
-4 15 22 0 
-3 23 0 
-3 24 0 
-5 25 0 
-3 26 0 
-3 20 0 
-6 10 -7 20 0 
-6 10 -1 -7 27 0 
-8 28 0 
-8 29 0 
-3 -9 -10 6 25 0 
-11 2 27 0 
-12 26 0 
-4 15 27 0 
-4 15 20 0 
-13 -14 30 0 
-15 4 31 0 
-15 4 32 0 
-16 33 0 
-17 -18 27 0 
-11 2 27 0 
-13 -14 34 0 
-13 -14 35 0 
-13 -14 36 0 
-13 -15 4 37 0 
-13 -14 38 0 
-13 -14 39 0 
-13 -15 4 40 0 
-19 27 0 
-19 26 0 
